33D32945 STP File, STP Format Version 1.0

SECTION Comment
Name    "Series B" 
Creator "A. M. Costa" 
Format  "Z.H. Fu and J. K. Hao"
Remark  "Sparse graph with random weights"
#TotalEdgeCost 534
#BudgetFraction 10
END 

SECTION Graph 
Nodes 50 
Edges 100 
Root 1
Budget 53
HopLimit 3
E 1 14 1 
E 1 20 1 
E 1 21 6 
E 1 34 4 
E 1 39 4 
E 2 4 5 
E 2 12 10 
E 2 16 10 
E 2 28 10 
E 2 47 2 
E 3 7 2 
E 3 18 3 
E 3 21 5 
E 3 32 9 
E 3 35 10 
E 3 40 8 
E 4 24 1 
E 4 28 5 
E 4 37 9 
E 4 41 10 
E 4 49 10 
E 5 18 3 
E 5 25 2 
E 5 48 3 
E 5 49 4 
E 6 12 8 
E 6 18 2 
E 6 21 6 
E 6 26 9 
E 6 42 2 
E 6 46 5 
E 6 50 1 
E 7 46 2 
E 8 36 4 
E 8 37 6 
E 8 45 4 
E 9 21 6 
E 9 25 5 
E 9 36 8 
E 9 42 6 
E 10 13 4 
E 10 18 1 
E 10 19 9 
E 10 23 5 
E 10 40 9 
E 11 30 2 
E 11 32 7 
E 11 44 4 
E 12 15 7 
E 12 17 10 
E 12 35 6 
E 14 24 6 
E 14 25 10 
E 15 25 8 
E 16 21 7 
E 16 42 4 
E 17 21 5 
E 17 27 5 
E 17 46 5 
E 18 46 1 
E 19 20 10 
E 19 37 8 
E 19 44 4 
E 20 39 1 
E 20 47 2 
E 20 49 2 
E 21 37 1 
E 21 49 7 
E 22 47 10 
E 23 31 8 
E 23 33 10 
E 23 34 5 
E 23 42 3 
E 23 43 2 
E 24 36 7 
E 24 45 8 
E 25 30 1 
E 25 43 1 
E 25 48 9 
E 26 31 2 
E 26 48 10 
E 27 42 9 
E 27 48 4 
E 28 30 5 
E 29 31 9 
E 30 32 1 
E 32 36 9 
E 32 42 8 
E 34 37 3 
E 35 49 1 
E 36 45 2 
E 36 46 10 
E 37 40 4 
E 38 45 5 
E 38 46 4 
E 38 49 7 
E 42 44 6 
E 42 45 6 
E 42 49 3 
E 46 47 1 
END 

SECTION ProfitableVertices 
ProfitableVertices 13 
PV 1 35
PV 5 9
PV 7 76
PV 13 78
PV 15 68
PV 16 84
PV 20 40
PV 23 9
PV 24 97
PV 31 14
PV 35 76
PV 37 47
PV 39 33
END 

EOF 
